c Generated map
c Size: 8 * 8, weights in range: 1 to 10, walls: True, with ratio 0.05
c dim 1 of 10
c
p sp 64 103
c graph contains 64 nodes and 103 arcs
c
a 1 9 2
a 9 1 2
a 1 2 9
a 2 1 9
a 2 10 6
a 10 2 6
a 2 3 2
a 3 2 2
a 3 11 10
a 11 3 10
a 3 4 4
a 4 3 4
a 4 12 8
a 12 4 8
a 4 5 1
a 5 4 1
a 5 13 1
a 13 5 1
a 5 6 3
a 6 5 3
a 6 14 5
a 14 6 5
a 6 7 5
a 7 6 5
a 7 15 3
a 15 7 3
a 7 8 5
a 8 7 5
a 8 16 1
a 16 8 1
a 9 17 5
a 17 9 5
a 9 10 5
a 10 9 5
a 10 18 9
a 18 10 9
a 10 11 8
a 11 10 8
a 11 19 5
a 19 11 5
a 11 12 5
a 12 11 5
a 12 20 4
a 20 12 4
a 12 13 8
a 13 12 8
a 13 21 4
a 21 13 4
a 13 14 1
a 14 13 1
a 14 22 4
a 22 14 4
a 14 15 10
a 15 14 10
a 15 23 9
a 23 15 9
a 15 16 3
a 16 15 3
a 16 24 8
a 24 16 8
a 17 25 4
a 25 17 4
a 17 18 4
a 18 17 4
a 18 26 9
a 26 18 9
a 18 19 9
a 19 18 9
a 19 27 4
a 27 19 4
a 19 20 10
a 20 19 10
a 20 28 7
a 28 20 7
a 20 21 1
a 21 20 1
a 21 29 5
a 29 21 5
a 21 22 7
a 22 21 7
a 22 30 3
a 30 22 3
a 22 23 2
a 23 22 2
a 23 31 5
a 31 23 5
a 23 24 3
a 24 23 3
a 24 32 10
a 32 24 10
a 25 33 4
a 33 25 4
a 25 26 5
a 26 25 5
a 26 34 10
a 34 26 10
a 26 27 3
a 27 26 3
a 27 35 3
a 35 27 3
a 27 28 1
a 28 27 1
a 28 36 8
a 36 28 8
a 28 29 9
a 29 28 9
a 29 37 6
a 37 29 6
a 29 30 1
a 30 29 1
a 30 38 8
a 38 30 8
a 30 31 4
a 31 30 4
a 31 39 5
a 39 31 5
a 31 32 6
a 32 31 6
a 32 40 2
a 40 32 2
a 33 41 3
a 41 33 3
a 33 34 6
a 34 33 6
a 34 42 1
a 42 34 1
a 34 35 5
a 35 34 5
a 35 43 5
a 43 35 5
a 35 36 5
a 36 35 5
a 36 44 9
a 44 36 9
a 36 37 10
a 37 36 10
a 37 45 4
a 45 37 4
a 37 38 6
a 38 37 6
a 38 46 6
a 46 38 6
a 38 39 8
a 39 38 8
a 39 47 2
a 47 39 2
a 39 40 2
a 40 39 2
a 40 48 2
a 48 40 2
a 41 42 6
a 42 41 6
a 42 50 4
a 50 42 4
a 42 43 10
a 43 42 10
a 43 51 1
a 51 43 1
a 43 44 2
a 44 43 2
a 44 52 3
a 52 44 3
a 44 45 5
a 45 44 5
a 45 53 9
a 53 45 9
a 45 46 2
a 46 45 2
a 46 54 5
a 54 46 5
a 46 47 8
a 47 46 8
a 47 55 10
a 55 47 10
a 47 48 3
a 48 47 3
a 48 56 3
a 56 48 3
a 50 51 7
a 51 50 7
a 51 59 2
a 59 51 2
a 51 52 2
a 52 51 2
a 52 60 1
a 60 52 1
a 52 53 4
a 53 52 4
a 53 54 9
a 54 53 9
a 54 62 7
a 62 54 7
a 54 55 2
a 55 54 2
a 55 63 3
a 63 55 3
a 55 56 7
a 56 55 7
a 56 64 9
a 64 56 9
a 59 60 6
a 60 59 6
a 62 63 9
a 63 62 9
a 63 64 2
a 64 63 2
